words_hard_train/6513.qaiger
aag 39 12 0 1 27
2
4
8
12
14
20
22
26
32
36
42
54
78
6 2 4
10 6 8
16 12 14
18 10 16
24 20 23
28 24 26
30 18 28
34 32 27
38 37 22
40 35 39
44 43 8
46 33 26
48 45 47
50 3 5
52 16 51
56 7 54
58 52 57
60 42 9
62 58 61
64 48 63
66 40 65
68 66 20
70 36 23
72 69 71
74 30 73
76 31 72
78 75 77
i0 1 x1[0]
i1 1 x1[1]
i2 1 x1[4]
i3 1 x1[2]
i4 1 x1[3]
i5 1 x1[6]
i6 1 x1[7]
i7 1 x1[5]
i8 2 y2[5]
i9 2 y2[7]
i10 2 y2[4]
i11 2 y2[1]
o0 bv[0]
c
simplified
  >
    add
      1
      1 x1
    or
      2 y2
      unary minus
        179
