words_hard_train/6513.qaiger.qdimacs
p cnf 39 82
a 1 2 4 6 7 10 11 13 0
e 3 5 8 9 12 14 15 16 17 18 19 20 21 22 23 24 25 26 27 28 29 30 31 32 33 34 35 36 37 38 39 0
-1 -2 3 0
1 -3 0
2 -3 0
-3 -4 5 0
3 -5 0
4 -5 0
-6 -7 8 0
6 -8 0
7 -8 0
-5 -8 9 0
5 -9 0
8 -9 0
-10 11 12 0
10 -12 0
-11 -12 0
-12 -13 14 0
12 -14 0
13 -14 0
-9 -14 15 0
9 -15 0
14 -15 0
-16 13 17 0
16 -17 0
-13 -17 0
18 -11 19 0
-18 -19 0
11 -19 0
17 19 20 0
-17 -20 0
-19 -20 0
21 -4 22 0
-21 -22 0
4 -22 0
16 -13 23 0
-16 -23 0
13 -23 0
22 23 24 0
-22 -24 0
-23 -24 0
1 2 25 0
-1 -25 0
-2 -25 0
-8 25 26 0
8 -26 0
-25 -26 0
3 -27 28 0
-3 -28 0
27 -28 0
-26 28 29 0
26 -29 0
-28 -29 0
-21 4 30 0
21 -30 0
-4 -30 0
-29 30 31 0
29 -31 0
-30 -31 0
-24 31 32 0
24 -32 0
-31 -32 0
-20 32 33 0
20 -33 0
-32 -33 0
-33 -10 34 0
33 -34 0
10 -34 0
-18 11 35 0
18 -35 0
-11 -35 0
34 35 36 0
-34 -36 0
-35 -36 0
-15 36 37 0
15 -37 0
-36 -37 0
15 -36 38 0
-15 -38 0
36 -38 0
37 38 39 0
-37 -39 0
-38 -39 0
39 0
